18
16
6 17 3 12 11 1 9
16 5 7 4 1 2 12 14 3
4 3 0 16 5 14 15 17 9 8
6 3 17 16 1 11 9 13
7 9 11 4 10 8 14 0 13 2 6 16 15 5 17 3 1 12
7 15 13 10 0 1 9 3 8 5 2 11 4 17
2 13 11 12 15
7 12 1 14 5 6 2 11 13 15 3 8 16 4
6 2 12 15 9 4 17 5 3 13 10 14 7 16 8 0
1 0 12 2 3 8 4 13
7 4
6 15 7 3 16 4 1 5 12 17 9 14 0 10 8 11 13
12 1 16
14 13 1 7 2 6 3 8 15 0 4
10 12 16 1 9
0 15 6 11 2 4 12 16 3 17 5 10 13 8 1 14 9 7
